
630.0
630.0
630.0
630.0
630.0
630.0
630.0
630.0
780.0
630.0
630.0
630.0
630.0
630.0
630.0
630.0
900.0
630.0
630.0
810.0
630.0
630.0
630.0
630.0
630.0
630.0
630.0
630.0
630.0
630.0
630.0
630.0
630.0
630.0
630.0
630.0
630.0
630.0
630.0
630.0
630.0
810.0
960.0
630.0
630.0
630.0
630.0
630.0
630.0
630.0